Si 
 1.0000000000000000
     5.5032120814910455    0.0000000000000000    0.0000000000000000
     0.0000000000000000    5.5032120814910455    0.0000000000000000
     0.0000000000000000    0.0000000000000000    5.5032120814910455
 Si 
   8
Cartesian
  0.0000000000000000  0.0000000000000000  0.0000000000000000
  0.0000000000000000  2.7516060407455227  2.7516060407455227
  2.7516060407455227  0.0000000000000000  2.7516060407455227
  2.7516060407455227  2.7516060407455227  0.0000000000000000
  1.3758030203727614  1.3758030203727614  1.3758030203727614
  1.3758030203727614  4.1274090611182839  4.1274090611182839
  4.1274090611182839  1.3758030203727614  4.1274090611182839
  4.1274090611182839  4.1274090611182839  1.3758030203727614
